
Log started (V20.1.0.0) Sat Aug 20 05:22:31 2022


Problem 'pp.lp' read.
Read time = 0.00 sec. (0.00 ticks)
Version identifier: 20.1.0.0 | 2020-11-10 | 9bedb6d68
Tried aggregator 1 time.
LP Presolve eliminated 0 rows and 4 columns.
Reduced LP has 2 rows, 2 columns, and 4 nonzeros.
Presolve time = 0.00 sec. (0.00 ticks)

Iteration log . . .
Iteration:     1   Dual objective     =           171.000000

Dual simplex - Optimal:  Objective =  1.7900000000e+02
Solution time =    0.00 sec.  Iterations = 2 (0)
Deterministic time = 0.01 ticks  (5.51 ticks/sec)


Variable Name           Solution Value
x5                            5.000000
x6                            2.000000
All other variables matching '*' are 0.

Log started (V20.1.0.0) Sat Aug 20 13:16:14 2022


Problem 'pd.lp' read.
Read time = 0.00 sec. (0.00 ticks)
Version identifier: 20.1.0.0 | 2020-11-10 | 9bedb6d68
Tried aggregator 1 time.
LP Presolve eliminated 6 rows and 2 columns.
All rows and columns eliminated.
Presolve time = 0.00 sec. (0.00 ticks)

Dual simplex - Optimal:  Objective =  0.0000000000e+00
Solution time =    0.00 sec.  Iterations = 0 (0)
Deterministic time = 0.00 ticks  (3.13 ticks/sec)


All variables matching '*' are 0.

Log started (V20.1.0.0) Sat Aug 20 13:16:55 2022


Problem 'pd.lp' read.
Read time = 0.00 sec. (0.00 ticks)
Version identifier: 20.1.0.0 | 2020-11-10 | 9bedb6d68
Tried aggregator 1 time.
LP Presolve eliminated 4 rows and 0 columns.
Reduced LP has 2 rows, 2 columns, and 4 nonzeros.
Presolve time = 0.00 sec. (0.00 ticks)

Iteration log . . .
Iteration:     1   Dual objective     =           209.000000

Dual simplex - Optimal:  Objective =  1.7900000000e+02
Solution time =    0.00 sec.  Iterations = 2 (0)
Deterministic time = 0.01 ticks  (6.37 ticks/sec)


Variable Name           Solution Value
w1                            3.000000
w2                            8.000000

Log started (V20.1.0.0) Sat Aug 20 13:22:56 2022


Problem 'pd2.lp' read.
Read time = 0.00 sec. (0.00 ticks)
Version identifier: 20.1.0.0 | 2020-11-10 | 9bedb6d68
Tried aggregator 1 time.
LP Presolve eliminated 6 rows and 2 columns.
All rows and columns eliminated.
Presolve time = 0.00 sec. (0.00 ticks)

Dual simplex - Optimal:  Objective =  1.7100000000e+02
Solution time =    0.00 sec.  Iterations = 0 (0)
Deterministic time = 0.00 ticks  (3.32 ticks/sec)


Variable Name           Solution Value
w2                            9.000000
All other variables matching '*' are 0.
Version identifier: 20.1.0.0 | 2020-11-10 | 9bedb6d68
Using devex.

Primal simplex - Optimal:  Objective =  1.7100000000e+02
Solution time =    0.00 sec.  Iterations = 0 (0)
Deterministic time = 0.00 ticks  (0.71 ticks/sec)


Variable Name           Solution Value
w2                            9.000000
All other variables matching '*' are 0.

Log started (V20.1.0.0) Sat Aug 20 13:24:34 2022


Problem 'pd.lp' read.
Read time = 0.00 sec. (0.00 ticks)
Version identifier: 20.1.0.0 | 2020-11-10 | 9bedb6d68
Tried aggregator 1 time.
LP Presolve eliminated 4 rows and 0 columns.
Reduced LP has 2 rows, 2 columns, and 4 nonzeros.
Presolve time = 0.00 sec. (0.00 ticks)

Iteration log . . .
Iteration:     1   Dual objective     =           209.000000

Dual simplex - Optimal:  Objective =  1.7900000000e+02
Solution time =    0.00 sec.  Iterations = 2 (0)
Deterministic time = 0.01 ticks  (6.37 ticks/sec)


Variable Name           Solution Value
w1                            3.000000
w2                            8.000000
